(set-info :smt-lib-version 2.6)
(set-logic UFLIA)
(set-info :source |Benchmarks from the paper: "Extending Sledgehammer with SMT Solvers" by Jasmin Blanchette, Sascha Bohme, and Lawrence C. Paulson, CADE 2011.  Translated to SMT2 by Andrew Reynolds and Morgan Deters.|)
(set-info :category "industrial")
(set-info :status unknown)
(declare-sort S1 0)
(declare-sort S2 0)
(declare-sort S3 0)
(declare-sort S4 0)
(declare-sort S5 0)
(declare-sort S6 0)
(declare-sort S7 0)
(declare-sort S8 0)
(declare-sort S9 0)
(declare-sort S10 0)
(declare-sort S11 0)
(declare-sort S12 0)
(declare-sort S13 0)
(declare-sort S14 0)
(declare-sort S15 0)
(declare-sort S16 0)
(declare-sort S17 0)
(declare-sort S18 0)
(declare-sort S19 0)
(declare-sort S20 0)
(declare-sort S21 0)
(declare-sort S22 0)
(declare-sort S23 0)
(declare-sort S24 0)
(declare-sort S25 0)
(declare-sort S26 0)
(declare-sort S27 0)
(declare-sort S28 0)
(declare-fun f1 () S1)
(declare-fun f2 () S1)
(declare-fun f3 (S2 S3) S1)
(declare-fun f4 () S3)
(declare-fun f5 (S3 S2) S1)
(declare-fun f6 (S4) S3)
(declare-fun f7 () S4)
(declare-fun f8 (S7 S6) S1)
(declare-fun f9 (S5) S7)
(declare-fun f10 (S8 S4) S7)
(declare-fun f11 (S9 S6) S8)
(declare-fun f12 (S10) S9)
(declare-fun f13 (S11 S10) S10)
(declare-fun f14 (S12 S7) S11)
(declare-fun f15 () S12)
(declare-fun f16 () S7)
(declare-fun f17 () S10)
(declare-fun f18 (S13 Int) S4)
(declare-fun f19 () S13)
(declare-fun f20 (S14 S4) Int)
(declare-fun f21 () S14)
(declare-fun f22 (S3 S3) S1)
(declare-fun f23 (S16 S15) S2)
(declare-fun f24 (S17 S10) S16)
(declare-fun f25 (S18 S15) S17)
(declare-fun f26 () S18)
(declare-fun f27 (S15 S5) S7)
(declare-fun f28 () S10)
(declare-fun f29 (S20 S2) S4)
(declare-fun f30 (S21 S19) S20)
(declare-fun f31 () S21)
(declare-fun f32 () S20)
(declare-fun f33 (S23 S22) S10)
(declare-fun f34 () S23)
(declare-fun f35 (S24 S10) S4)
(declare-fun f36 () S24)
(declare-fun f37 () S24)
(declare-fun f38 (S25 S10) S11)
(declare-fun f39 () S25)
(declare-fun f40 (S26 S27) S10)
(declare-fun f41 () S26)
(declare-fun f42 (S22) S27)
(declare-fun f43 (S10) S1)
(declare-fun f44 (S28 S7) S25)
(declare-fun f45 () S28)
(assert (not (= f1 f2)))
(assert (not (=> (forall ((?v0 S2)) (=> (= (f3 ?v0 f4) f1) (= (f5 (f6 f7) ?v0) f1))) (forall ((?v0 S5) (?v1 S6)) (=> (= (f8 (f9 ?v0) ?v1) f1) (forall ((?v2 S6)) (=> (= (f8 (f10 (f11 (f12 (f13 (f14 f15 f16) f17)) ?v1) f7) ?v2) f1) (and (= (f8 (f9 ?v0) ?v2) f1) (not (= (f8 f16 ?v2) f1))))))))))
(assert (forall ((?v0 S4)) (=> (forall ((?v1 S2)) (=> (= (f3 ?v1 f4) f1) (= (f5 (f6 ?v0) ?v1) f1))) (forall ((?v1 S5) (?v2 S6)) (=> (and (= (f8 (f9 ?v1) ?v2) f1) (= (f8 f16 ?v2) f1)) (forall ((?v3 S6)) (=> (= (f8 (f10 (f11 (f12 f17) ?v2) ?v0) ?v3) f1) (= (f8 (f9 ?v1) ?v3) f1))))))))
(assert (forall ((?v0 S3) (?v1 S4)) (=> (forall ((?v2 S2)) (=> (= (f3 ?v2 ?v0) f1) (= (f5 (f6 (f18 f19 (+ (f20 f21 ?v1) 1))) ?v2) f1))) (forall ((?v2 S2)) (=> (= (f3 ?v2 ?v0) f1) (= (f5 (f6 ?v1) ?v2) f1))))))
(assert (forall ((?v0 S4) (?v1 S2)) (=> (= (f5 (f6 (f18 f19 (+ (f20 f21 ?v0) 1))) ?v1) f1) (= (f5 (f6 ?v0) ?v1) f1))))
(assert (forall ((?v0 S7) (?v1 S6) (?v2 S10) (?v3 S4)) (=> (not (= (f8 ?v0 ?v1) f1)) (= (f8 (f10 (f11 (f12 (f13 (f14 f15 ?v0) ?v2)) ?v1) ?v3) ?v1) f1))))
(assert (forall ((?v0 S7) (?v1 S6) (?v2 S10) (?v3 S4) (?v4 S6) (?v5 S6)) (let ((?v_0 (f12 (f13 (f14 f15 ?v0) ?v2)))) (=> (= (f8 ?v0 ?v1) f1) (=> (= (f8 (f10 (f11 (f12 ?v2) ?v1) ?v3) ?v4) f1) (=> (= (f8 (f10 (f11 ?v_0 ?v4) ?v3) ?v5) f1) (= (f8 (f10 (f11 ?v_0 ?v1) ?v3) ?v5) f1)))))))
(assert (forall ((?v0 S3) (?v1 S3)) (= (= (f22 ?v0 ?v1) f1) (forall ((?v2 S4)) (=> (forall ((?v3 S2)) (=> (= (f3 ?v3 ?v0) f1) (= (f5 (f6 ?v2) ?v3) f1))) (forall ((?v3 S2)) (=> (= (f3 ?v3 ?v1) f1) (= (f5 (f6 ?v2) ?v3) f1))))))))
(assert (forall ((?v0 S7) (?v1 S10) (?v2 S7) (?v3 S10)) (= (= (f13 (f14 f15 ?v0) ?v1) (f13 (f14 f15 ?v2) ?v3)) (and (= ?v0 ?v2) (= ?v1 ?v3)))))
(assert (forall ((?v0 S7) (?v1 S10) (?v2 S6) (?v3 S4) (?v4 S6)) (=> (= (f8 (f10 (f11 (f12 (f13 (f14 f15 ?v0) ?v1)) ?v2) ?v3) ?v4) f1) (=> (=> (= ?v4 ?v2) (=> (not (= (f8 ?v0 ?v2) f1)) false)) (=> (forall ((?v5 S6)) (=> (= (f8 ?v0 ?v2) f1) (=> (= (f8 (f10 (f11 (f12 ?v1) ?v2) ?v3) ?v5) f1) (=> (= (f8 (f10 (f11 (f12 (f13 (f14 f15 ?v0) ?v1)) ?v5) ?v3) ?v4) f1) false)))) false)))))
(assert (forall ((?v0 S10) (?v1 S6) (?v2 S4) (?v3 S6)) (let ((?v_0 (f11 (f12 ?v0) ?v1))) (=> (= (f8 (f10 ?v_0 ?v2) ?v3) f1) (= (f8 (f10 ?v_0 (f18 f19 (+ (f20 f21 ?v2) 1))) ?v3) f1)))))
(assert (forall ((?v0 S10) (?v1 S6) (?v2 S4) (?v3 S6) (?v4 S4)) (let ((?v_0 (f11 (f12 ?v0) ?v1))) (=> (= (f8 (f10 ?v_0 ?v2) ?v3) f1) (=> (<= (f20 f21 ?v2) (f20 f21 ?v4)) (= (f8 (f10 ?v_0 ?v4) ?v3) f1))))))
(assert (forall ((?v0 S4) (?v1 S15) (?v2 S10) (?v3 S15)) (= (= (f5 (f6 ?v0) (f23 (f24 (f25 f26 ?v1) ?v2) ?v3)) f1) (forall ((?v4 S5) (?v5 S6)) (=> (= (f8 (f27 ?v1 ?v4) ?v5) f1) (forall ((?v6 S6)) (=> (= (f8 (f10 (f11 (f12 ?v2) ?v5) ?v0) ?v6) f1) (= (f8 (f27 ?v3 ?v4) ?v6) f1))))))))
(assert (forall ((?v0 S10) (?v1 S6) (?v2 S4) (?v3 S6) (?v4 S10) (?v5 S6) (?v6 S4) (?v7 S6)) (=> (= (f8 (f10 (f11 (f12 ?v0) ?v1) ?v2) ?v3) f1) (=> (= (f8 (f10 (f11 (f12 ?v4) ?v5) ?v6) ?v7) f1) (exists ((?v8 S4)) (and (= (f8 (f10 (f11 (f12 ?v0) ?v1) ?v8) ?v3) f1) (= (f8 (f10 (f11 (f12 ?v4) ?v5) ?v8) ?v7) f1)))))))
(assert (forall ((?v0 S6) (?v1 S4)) (= (f8 (f10 (f11 (f12 f28) ?v0) ?v1) ?v0) f1)))
(assert (forall ((?v0 S6) (?v1 S4) (?v2 S6)) (=> (= (f8 (f10 (f11 (f12 f28) ?v0) ?v1) ?v2) f1) (=> (=> (= ?v2 ?v0) false) false))))
(assert (forall ((?v0 S15) (?v1 S10) (?v2 S15) (?v3 S15) (?v4 S10) (?v5 S15)) (= (= (f23 (f24 (f25 f26 ?v0) ?v1) ?v2) (f23 (f24 (f25 f26 ?v3) ?v4) ?v5)) (and (= ?v0 ?v3) (and (= ?v1 ?v4) (= ?v2 ?v5))))))
(assert (forall ((?v0 S7) (?v1 S10)) (not (= (f13 (f14 f15 ?v0) ?v1) f28))))
(assert (forall ((?v0 S7) (?v1 S10)) (not (= f28 (f13 (f14 f15 ?v0) ?v1)))))
(assert (forall ((?v0 S19) (?v1 S15) (?v2 S10) (?v3 S15)) (= (f29 (f30 f31 ?v0) (f23 (f24 (f25 f26 ?v1) ?v2) ?v3)) (f18 f19 0))))
(assert (forall ((?v0 S15) (?v1 S10) (?v2 S15)) (= (f29 f32 (f23 (f24 (f25 f26 ?v0) ?v1) ?v2)) (f18 f19 0))))
(assert (forall ((?v0 S2)) (=> (forall ((?v1 S15) (?v2 S10) (?v3 S15)) (=> (= ?v0 (f23 (f24 (f25 f26 ?v1) ?v2) ?v3)) false)) false)))
(assert (forall ((?v0 S15) (?v1 S22) (?v2 S15)) (= (f5 (f6 (f18 f19 0)) (f23 (f24 (f25 f26 ?v0) (f33 f34 ?v1)) ?v2)) f1)))
(assert (= (f35 f36 f28) (f18 f19 0)))
(assert (forall ((?v0 S7) (?v1 S10)) (= (f35 f36 (f13 (f14 f15 ?v0) ?v1)) (f18 f19 (+ (f20 f21 (f35 f36 ?v1)) (+ 0 1))))))
(assert (= (f35 f37 f28) (f18 f19 0)))
(assert (forall ((?v0 S10) (?v1 S6) (?v2 S4) (?v3 S6) (?v4 S10) (?v5 S6)) (=> (= (f8 (f10 (f11 (f12 ?v0) ?v1) ?v2) ?v3) f1) (=> (= (f8 (f10 (f11 (f12 ?v4) ?v3) ?v2) ?v5) f1) (= (f8 (f10 (f11 (f12 (f13 (f38 f39 ?v0) ?v4)) ?v1) ?v2) ?v5) f1)))))
(assert (forall ((?v0 S7) (?v1 S10)) (= (f35 f37 (f13 (f14 f15 ?v0) ?v1)) (f18 f19 (+ (f20 f21 (f35 f37 ?v1)) (+ 0 1))))))
(assert (forall ((?v0 S22) (?v1 S10) (?v2 S10)) (not (= (f33 f34 ?v0) (f13 (f38 f39 ?v1) ?v2)))))
(assert (forall ((?v0 S10) (?v1 S10) (?v2 S22)) (not (= (f13 (f38 f39 ?v0) ?v1) (f33 f34 ?v2)))))
(assert (forall ((?v0 S22)) (= (f35 f36 (f33 f34 ?v0)) (f18 f19 0))))
(assert (forall ((?v0 S22)) (= (f35 f37 (f33 f34 ?v0)) (f18 f19 0))))
(assert (forall ((?v0 S10) (?v1 S10)) (= (f35 f36 (f13 (f38 f39 ?v0) ?v1)) (f18 f19 (+ (+ (f20 f21 (f35 f36 ?v0)) (f20 f21 (f35 f36 ?v1))) (+ 0 1))))))
(assert (forall ((?v0 S10) (?v1 S10)) (= (f35 f37 (f13 (f38 f39 ?v0) ?v1)) (f18 f19 (+ (+ (f20 f21 (f35 f37 ?v0)) (f20 f21 (f35 f37 ?v1))) (+ 0 1))))))
(assert (forall ((?v0 S22) (?v1 S22)) (= (= (f33 f34 ?v0) (f33 f34 ?v1)) (= ?v0 ?v1))))
(assert (forall ((?v0 S10) (?v1 S10) (?v2 S10) (?v3 S10)) (= (= (f13 (f38 f39 ?v0) ?v1) (f13 (f38 f39 ?v2) ?v3)) (and (= ?v0 ?v2) (= ?v1 ?v3)))))
(assert (forall ((?v0 S22) (?v1 S7) (?v2 S10)) (not (= (f33 f34 ?v0) (f13 (f14 f15 ?v1) ?v2)))))
(assert (forall ((?v0 S7) (?v1 S10) (?v2 S22)) (not (= (f13 (f14 f15 ?v0) ?v1) (f33 f34 ?v2)))))
(assert (forall ((?v0 S22)) (not (= (f33 f34 ?v0) f28))))
(assert (forall ((?v0 S22)) (not (= f28 (f33 f34 ?v0)))))
(assert (forall ((?v0 S10) (?v1 S10) (?v2 S7) (?v3 S10)) (not (= (f13 (f38 f39 ?v0) ?v1) (f13 (f14 f15 ?v2) ?v3)))))
(assert (forall ((?v0 S7) (?v1 S10) (?v2 S10) (?v3 S10)) (not (= (f13 (f14 f15 ?v0) ?v1) (f13 (f38 f39 ?v2) ?v3)))))
(assert (forall ((?v0 S10) (?v1 S10)) (not (= (f13 (f38 f39 ?v0) ?v1) f28))))
(assert (forall ((?v0 S10) (?v1 S10)) (not (= f28 (f13 (f38 f39 ?v0) ?v1)))))
(assert (forall ((?v0 S10) (?v1 S10) (?v2 S6) (?v3 S4) (?v4 S6)) (=> (= (f8 (f10 (f11 (f12 (f13 (f38 f39 ?v0) ?v1)) ?v2) ?v3) ?v4) f1) (=> (forall ((?v5 S6)) (=> (= (f8 (f10 (f11 (f12 ?v0) ?v2) ?v3) ?v5) f1) (=> (= (f8 (f10 (f11 (f12 ?v1) ?v5) ?v3) ?v4) f1) false))) false))))
(assert (forall ((?v0 S4) (?v1 S15) (?v2 S22) (?v3 S15)) (let ((?v_0 (f25 f26 ?v1))) (= (= (f5 (f6 ?v0) (f23 (f24 ?v_0 (f40 f41 (f42 ?v2))) ?v3)) f1) (= (f5 (f6 (f18 f19 (+ (f20 f21 ?v0) 1))) (f23 (f24 ?v_0 (f33 f34 ?v2)) ?v3)) f1)))))
(assert (=> (= (f43 f28) f1) (=> false false)))
(assert (forall ((?v0 S10) (?v1 S10)) (=> (= (f43 (f13 (f38 f39 ?v0) ?v1)) f1) (=> (=> (= (f43 ?v0) f1) (=> (= (f43 ?v1) f1) false)) false))))
(assert (forall ((?v0 S7) (?v1 S6) (?v2 S10) (?v3 S4) (?v4 S6) (?v5 S10)) (=> (not (= (f8 ?v0 ?v1) f1)) (=> (= (f8 (f10 (f11 (f12 ?v2) ?v1) ?v3) ?v4) f1) (= (f8 (f10 (f11 (f12 (f13 (f38 (f44 f45 ?v0) ?v5) ?v2)) ?v1) ?v3) ?v4) f1)))))
(assert (forall ((?v0 S7) (?v1 S6) (?v2 S10) (?v3 S4) (?v4 S6) (?v5 S10)) (=> (= (f8 ?v0 ?v1) f1) (=> (= (f8 (f10 (f11 (f12 ?v2) ?v1) ?v3) ?v4) f1) (= (f8 (f10 (f11 (f12 (f13 (f38 (f44 f45 ?v0) ?v2) ?v5)) ?v1) ?v3) ?v4) f1)))))
(assert (forall ((?v0 S7) (?v1 S10) (?v2 S10) (?v3 S6) (?v4 S4) (?v5 S6)) (let ((?v_0 (= (f8 ?v0 ?v3) f1))) (=> (= (f8 (f10 (f11 (f12 (f13 (f38 (f44 f45 ?v0) ?v1) ?v2)) ?v3) ?v4) ?v5) f1) (=> (=> ?v_0 (=> (= (f8 (f10 (f11 (f12 ?v1) ?v3) ?v4) ?v5) f1) false)) (=> (=> (not ?v_0) (=> (= (f8 (f10 (f11 (f12 ?v2) ?v3) ?v4) ?v5) f1) false)) false))))))
(assert (forall ((?v0 S7) (?v1 S10)) (=> (= (f43 (f13 (f14 f15 ?v0) ?v1)) f1) (=> (=> (= (f43 ?v1) f1) false) false))))
(assert (forall ((?v0 S7) (?v1 S10) (?v2 S10)) (=> (= (f43 (f13 (f38 (f44 f45 ?v0) ?v1) ?v2)) f1) (=> (=> (= (f43 ?v1) f1) (=> (= (f43 ?v2) f1) false)) false))))
(assert (forall ((?v0 S22) (?v1 S6) (?v2 S4) (?v3 S6)) (=> (= (f8 (f10 (f11 (f12 (f40 f41 (f42 ?v0))) ?v1) ?v2) ?v3) f1) (= (f8 (f10 (f11 (f12 (f33 f34 ?v0)) ?v1) (f18 f19 (+ (f20 f21 ?v2) 1))) ?v3) f1))))
(assert (forall ((?v0 S10) (?v1 S10) (?v2 S7)) (=> (= (f43 ?v0) f1) (=> (= (f43 ?v1) f1) (= (f43 (f13 (f38 (f44 f45 ?v2) ?v0) ?v1)) f1)))))
(assert (forall ((?v0 S7) (?v1 S10) (?v2 S10) (?v3 S7) (?v4 S10) (?v5 S10)) (= (= (f13 (f38 (f44 f45 ?v0) ?v1) ?v2) (f13 (f38 (f44 f45 ?v3) ?v4) ?v5)) (and (= ?v0 ?v3) (and (= ?v1 ?v4) (= ?v2 ?v5))))))
(assert (forall ((?v0 S10) (?v1 S7)) (=> (= (f43 ?v0) f1) (= (f43 (f13 (f14 f15 ?v1) ?v0)) f1))))
(assert (forall ((?v0 S7) (?v1 S10) (?v2 S10) (?v3 S22)) (not (= (f13 (f38 (f44 f45 ?v0) ?v1) ?v2) (f33 f34 ?v3)))))
(assert (forall ((?v0 S4)) (= (f18 f19 (f20 f21 ?v0)) ?v0)))
(assert (forall ((?v0 Int)) (=> (<= 0 ?v0) (= (f20 f21 (f18 f19 ?v0)) ?v0))))
(assert (forall ((?v0 Int)) (=> (< ?v0 0) (= (f20 f21 (f18 f19 ?v0)) 0))))
(check-sat)
(exit)
